# Objective value = 37.0
xobj 37.0
x0_r1 -0.0
x1_r1 0.0
x2_r1 0.0
x3_r1 -0.0
y0_r1 -0.0
y1_r1 -0.0
y2_r1 -0.0
y3_r1 0.0
SH0_r1 -0.0
SL0_r1 -0.0
x4_r1 -0.0
x5_r1 -0.0
x6_r1 0.0
x7_r1 -0.0
y4_r1 -0.0
y5_r1 -0.0
y6_r1 -0.0
y7_r1 0.0
SH1_r1 -0.0
SL1_r1 0.0
x8_r1 0.0
x9_r1 -0.0
x10_r1 -0.0
x11_r1 -0.0
y8_r1 -0.0
y9_r1 -0.0
y10_r1 -0.0
y11_r1 -0.0
SH2_r1 -0.0
SL2_r1 -0.0
x12_r1 1.0
x13_r1 1.0
x14_r1 1.0
x15_r1 1.0
y12_r1 0.0
y13_r1 -3.776700742031823e-16
y14_r1 -0.0
y15_r1 1.0
SH3_r1 1.0
SL3_r1 -0.0
x16_r1 -0.0
x17_r1 -0.0
x18_r1 -0.0
x19_r1 -0.0
y16_r1 -0.0
y17_r1 1.5881867761018131e-21
y18_r1 -0.0
y19_r1 8.999725064576941e-22
SH4_r1 9.529120656610879e-22
SL4_r1 -0.0
x20_r1 -0.0
x21_r1 -0.0
x22_r1 -0.0
x23_r1 1.8047095732436937e-19
y20_r1 -0.0
y21_r1 -0.0
y22_r1 -0.0
y23_r1 1.8047095732436937e-19
SH5_r1 1.8047095732436937e-19
SL5_r1 -0.0
x24_r1 -0.0
x25_r1 -0.0
x26_r1 0.0
x27_r1 -0.0
y24_r1 -0.0
y25_r1 -0.0
y26_r1 -0.0
y27_r1 -0.0
SH6_r1 -0.0
SL6_r1 -0.0
x28_r1 -0.0
x29_r1 -0.0
x30_r1 0.0
x31_r1 -0.0
y28_r1 -0.0
y29_r1 0.0
y30_r1 -0.0
y31_r1 -0.0
SH7_r1 0.0
SL7_r1 -0.0
x32_r1 -0.0
x33_r1 -0.0
x34_r1 -0.0
x35_r1 -0.0
y32_r1 4.549493369041652e-23
y33_r1 1.522012327097571e-22
y34_r1 -0.0
y35_r1 0.0
SH8_r1 4.7976475528075605e-23
SL8_r1 -0.0
x36_r1 -0.0
x37_r1 -0.0
x38_r1 0.0
x39_r1 -0.0
y36_r1 -0.0
y37_r1 -0.0
y38_r1 -0.0
y39_r1 0.0
SH9_r1 0.0
SL9_r1 -0.0
x40_r1 -0.0
x41_r1 -0.0
x42_r1 -0.0
x43_r1 -0.0
y40_r1 -0.0
y41_r1 -0.0
y42_r1 -0.0
y43_r1 -0.0
SH10_r1 -0.0
SL10_r1 -0.0
x44_r1 -0.0
x45_r1 0.0
x46_r1 -0.0
x47_r1 -0.0
y44_r1 -0.0
y45_r1 0.0
y46_r1 -0.0
y47_r1 -0.0
SH11_r1 0.0
SL11_r1 -0.0
x48_r1 0.0
x49_r1 0.0
x50_r1 0.0
x51_r1 0.0
y48_r1 -0.0
y49_r1 -0.0
y50_r1 -0.0
y51_r1 -0.0
SH12_r1 0.0
SL12_r1 -0.0
x52_r1 -0.0
x53_r1 2.2861736883748787e-17
x54_r1 3.4767082742428497e-17
x55_r1 -0.0
y52_r1 -0.0
y53_r1 1.736920798555993e-17
y54_r1 -0.0
y55_r1 8.762230261056636e-17
SH13_r1 4.7046301003092375e-17
SL13_r1 -0.0
x56_r1 -0.0
x57_r1 -1.3877787807814457e-17
x58_r1 -0.0
x59_r1 -0.0
y56_r1 2.7755575615628914e-17
y57_r1 -0.0
y58_r1 0.0
y59_r1 0.0
SH14_r1 -0.0
SL14_r1 -0.0
x60_r1 1.0
x61_r1 1.0
x62_r1 -0.0
x63_r1 1.0
y60_r1 1.1102230246251565e-16
y61_r1 0.0
y62_r1 0.0
y63_r1 1.0
SH15_r1 1.0
SL15_r1 1.0
y0_r2 -0.0
y1_r2 0.0
y2_r2 -0.0
y3_r2 -0.0
SH0_r2 -0.0
SL0_r2 -0.0
y4_r2 -0.0
y5_r2 -0.0
y6_r2 -0.0
y7_r2 -0.0
SH1_r2 0.0
SL1_r2 0.0
y8_r2 -0.0
y9_r2 -0.0
y10_r2 -0.0
y11_r2 -7.754818242684634e-24
SH2_r2 -7.754818242684634e-24
SL2_r2 7.858215819253763e-24
y12_r2 -0.0
y13_r2 -0.0
y14_r2 8.337980574534519e-22
y15_r2 -0.0
SH3_r2 0.0
SL3_r2 -0.0
y16_r2 -0.0
y17_r2 0.0
y18_r2 -0.0
y19_r2 -0.0
SH4_r2 -0.0
SL4_r2 -0.0
y20_r2 -0.0
y21_r2 -0.0
y22_r2 8.470329472543003e-22
y23_r2 -0.0
SH5_r2 7.940933880509066e-22
SL5_r2 4.1028158382630173e-22
y24_r2 -0.0
y25_r2 -0.0
y26_r2 9.098986738083304e-23
y27_r2 1.3565762045869654e-22
SH6_r2 1.3565762045869654e-22
SL6_r2 -0.0
y28_r2 -0.0
y29_r2 -0.0
y30_r2 -0.0
y31_r2 -0.0
SH7_r2 -0.0
SL7_r2 -0.0
y32_r2 -0.0
y33_r2 -0.0
y34_r2 -0.0
y35_r2 0.0
SH8_r2 0.0
SL8_r2 -0.0
y36_r2 -0.0
y37_r2 -0.0
y38_r2 0.0
y39_r2 0.0
SH9_r2 -0.0
SL9_r2 -0.0
y40_r2 -0.0
y41_r2 -0.0
y42_r2 0.0
y43_r2 -0.0
SH10_r2 0.0
SL10_r2 -0.0
y44_r2 -0.0
y45_r2 -0.0
y46_r2 0.0
y47_r2 -0.0
SH11_r2 0.0
SL11_r2 -0.0
y48_r2 1.0
y49_r2 -0.0
y50_r2 0.0
y51_r2 1.0
SH12_r2 1.0
SL12_r2 -0.0
y52_r2 5.292706546742177e-17
y53_r2 -0.0
y54_r2 5.029258124322408e-22
y55_r2 -0.0
SH13_r2 5.293955920339377e-22
SL13_r2 1.0918784085699965e-22
y56_r2 -0.0
y57_r2 -0.0
y58_r2 0.0
y59_r2 -0.0
SH14_r2 0.0
SL14_r2 0.0
y60_r2 1.0
y61_r2 -0.0
y62_r2 1.138200522872966e-21
y63_r2 0.9999999999999998
SH15_r2 1.0
SL15_r2 1.1334285510063722e-16
y0_r3 -0.0
y1_r3 -0.0
y2_r3 -0.0
y3_r3 -0.0
SH0_r3 -0.0
SL0_r3 -0.0
y4_r3 -0.0
y5_r3 -0.0
y6_r3 -0.0
y7_r3 -0.0
SH1_r3 -0.0
SL1_r3 -0.0
y8_r3 -0.0
y9_r3 -0.0
y10_r3 -0.0
y11_r3 -0.0
SH2_r3 -0.0
SL2_r3 -0.0
y12_r3 0.0
y13_r3 1.0
y14_r3 -0.0
y15_r3 -0.0
SH3_r3 1.0
SL3_r3 -0.0
y16_r3 -0.0
y17_r3 -0.0
y18_r3 -0.0
y19_r3 -0.0
SH4_r3 -0.0
SL4_r3 -0.0
y20_r3 -0.0
y21_r3 -0.0
y22_r3 -0.0
y23_r3 -0.0
SH5_r3 -0.0
SL5_r3 -0.0
y24_r3 -0.0
y25_r3 -0.0
y26_r3 -0.0
y27_r3 -0.0
SH6_r3 0.0
SL6_r3 -0.0
y28_r3 -0.0
y29_r3 -0.0
y30_r3 -0.0
y31_r3 -0.0
SH7_r3 0.0
SL7_r3 -0.0
y32_r3 7.080666043453917e-22
y33_r3 2.4352197233561135e-21
y34_r3 9.926167350636332e-23
y35_r3 1.5881867761018131e-22
SH8_r3 1.0091603473146938e-21
SL8_r3 -0.0
y36_r3 7.940933880509066e-22
y37_r3 1.0058516248644817e-21
y38_r3 -0.0
y39_r3 7.411538288475128e-22
SH9_r3 9.529120656610879e-22
SL9_r3 -0.0
y40_r3 0.0
y41_r3 0.0
y42_r3 -0.0
y43_r3 0.0
SH10_r3 0.0
SL10_r3 -0.0
y44_r3 1.3234889800848443e-21
y45_r3 1.9058241313221758e-21
y46_r3 -0.0
y47_r3 2.514629062161204e-22
SH11_r3 1.9058241313221758e-21
SL11_r3 1.0852609636695723e-21
y48_r3 -1.6543612251060553e-24
y49_r3 -6.2038545941477076e-24
y50_r3 -0.0
y51_r3 -0.0
SH12_r3 -6.4106497472859645e-24
SL12_r3 -1.4475660719677984e-23
y52_r3 -6.271063018917641e-23
y53_r3 1.3565762045869654e-22
y54_r3 -0.0
y55_r3 7.610061635487855e-23
SH13_r3 1.3565762045869654e-22
SL13_r3 -0.0
y56_r3 0.0
y57_r3 0.0
y58_r3 -0.0
y59_r3 -0.0
SH14_r3 0.0
SL14_r3 0.0
y60_r3 7.70311945440007e-23
y61_r3 1.0
y62_r3 -0.0
y63_r3 -0.0
SH15_r3 0.9999999999999998
SL15_r3 -0.0
y0_r4 0.0
y1_r4 0.0
y2_r4 -0.0
y3_r4 0.0
SH0_r4 -0.0
SL0_r4 -0.0
y4_r4 -0.0
y5_r4 -0.0
y6_r4 -0.0
y7_r4 -0.0
SH1_r4 0.0
SL1_r4 -0.0
y8_r4 -2.6794512615609305e-24
y9_r4 8.470329472543003e-22
y10_r4 0.0
y11_r4 -0.0
SH2_r4 1.3234889800848443e-21
SL2_r4 -0.0
y12_r4 2.882853681718013e-23
y13_r4 -0.0
y14_r4 -0.0
y15_r4 -0.0
SH3_r4 -5.624828165360588e-23
SL3_r4 -0.0
y16_r4 1.0
y17_r4 5.759824041329242e-20
y18_r4 1.7787691892340307e-20
y19_r4 1.0
SH4_r4 1.0
SL4_r4 -0.0
y20_r4 -0.0
y21_r4 -0.0
y22_r4 -0.0
y23_r4 -0.0
SH5_r4 -0.0
SL5_r4 -0.0
y24_r4 4.7645603283054394e-21
y25_r4 5.293955920339377e-21
y26_r4 4.341043854678289e-21
y27_r4 4.7645603283054394e-21
SH6_r4 4.7645603283054394e-21
SL6_r4 -0.0
y28_r4 1.0
y29_r4 5.082197683525802e-20
y30_r4 7.623296525288703e-21
y31_r4 1.0
SH7_r4 1.0
SL7_r4 -0.0
y32_r4 0.0
y33_r4 0.0
y34_r4 -0.0
y35_r4 0.0
SH8_r4 0.0
SL8_r4 -0.0
y36_r4 0.0
y37_r4 0.0
y38_r4 0.0
y39_r4 0.0
SH9_r4 -0.0
SL9_r4 -0.0
y40_r4 1.9852334701272664e-23
y41_r4 -8.106370003019671e-23
y42_r4 -0.0
y43_r4 -1.3855275260263214e-23
SH10_r4 -1.3855275260263214e-23
SL10_r4 -0.0
y44_r4 8.933550615572699e-23
y45_r4 1.0058516248644817e-21
y46_r4 -0.0
y47_r4 -0.0
SH11_r4 3.970466940254533e-22
SL11_r4 3.970466940254533e-22
y48_r4 -0.0
y49_r4 -0.0
y50_r4 -0.0
y51_r4 -0.0
SH12_r4 -0.0
SL12_r4 -0.0
y52_r4 0.0
y53_r4 -0.0
y54_r4 -0.0
y55_r4 -0.0
SH13_r4 -0.0
SL13_r4 -0.0
y56_r4 1.852884572118782e-22
y57_r4 7.676236084492097e-22
y58_r4 0.0
y59_r4 -0.0
SH14_r4 2.514629062161204e-22
SL14_r4 -0.0
y60_r4 8.602678370551488e-23
y61_r4 1.257314531080602e-22
y62_r4 -0.0
y63_r4 -0.0
SH15_r4 5.624828165360588e-23
SL15_r4 5.955700410381799e-23
y0_r5 2.614666217491836e-23
y1_r5 -2.918154260593567e-24
y2_r5 -0.0
y3_r5 0.0
SH0_r5 1.2091054110052459e-23
SL0_r5 -0.0
y4_r5 2.541098841762901e-21
y5_r5 1.0
y6_r5 -0.0
y7_r5 1.5246593050577406e-20
SH1_r5 1.0
SL1_r5 -0.0
y8_r5 1.0587911840678754e-22
y9_r5 6.948317145445432e-23
y10_r5 -0.0
y11_r5 -0.0
SH2_r5 8.602678370551488e-23
SL2_r5 1.5302841332231012e-23
y12_r5 1.852884572118782e-22
y13_r5 1.4889251025954498e-22
y14_r5 -0.0
y15_r5 -0.0
SH3_r5 1.852884572118782e-22
SL3_r5 8.271806125530277e-23
y16_r5 -0.0
y17_r5 8.999725064576941e-22
y18_r5 8.999725064576941e-22
y19_r5 -0.0
SH4_r5 8.470329472543003e-22
SL4_r5 6.352747104407253e-22
y20_r5 -0.0
y21_r5 3.8116482626443515e-21
y22_r5 5.759824041329242e-20
y23_r5 -0.0
SH5_r5 5.759824041329242e-20
SL5_r5 4.912791094074942e-20
y24_r5 -0.0
y25_r5 9.529120656610879e-22
y26_r5 8.470329472543003e-22
y27_r5 0.0
SH6_r5 8.999725064576941e-22
SL6_r5 -9.429858983104515e-23
y28_r5 -0.0
y29_r5 7.146840492458159e-22
y30_r5 8.999725064576941e-22
y31_r5 0.0
SH7_r5 8.999725064576941e-22
SL7_r5 7.146840492458159e-22
y32_r5 -0.0
y33_r5 0.0
y34_r5 0.0
y35_r5 -0.0
SH8_r5 0.0
SL8_r5 0.0
y36_r5 1.1102426122620618e-16
y37_r5 -0.0
y38_r5 2.964615315390051e-20
y39_r5 1.6940658945086007e-20
SH9_r5 2.964615315390051e-20
SL9_r5 -1.1100832641888596e-16
y40_r5 -0.0
y41_r5 0.0
y42_r5 0.0
y43_r5 -0.0
SH10_r5 -0.0
SL10_r5 -0.0
y44_r5 0.0
y45_r5 0.0
y46_r5 0.0
y47_r5 -0.0
SH11_r5 0.0
SL11_r5 0.0
y48_r5 -0.0
y49_r5 0.0
y50_r5 -0.0
y51_r5 -0.0
SH12_r5 -0.0
SL12_r5 -0.0
y52_r5 7.940933880509066e-22
y53_r5 1.0
y54_r5 5.421010862427522e-20
y55_r5 -0.0
SH13_r5 1.0
SL13_r5 -0.0
y56_r5 -1.7288074802358278e-22
y57_r5 -0.0
y58_r5 -0.0
y59_r5 -0.0
SH14_r5 -3.5982356646056704e-23
SL14_r5 -0.0
y60_r5 -0.0
y61_r5 -0.0
y62_r5 -0.0
y63_r5 -0.0
SH15_r5 -0.0
SL15_r5 -0.0
y0_r6 -0.0
y1_r6 3.0704944337968387e-21
y2_r6 -0.0
y3_r6 2.0117032497289633e-21
SH0_r6 2.6469779601696886e-21
SL0_r6 -1.0587911840678754e-22
y4_r6 -0.0
y5_r6 0.0
y6_r6 -0.0
y7_r6 -0.0
SH1_r6 -0.0
SL1_r6 -0.0
y8_r6 -0.0
y9_r6 1.1102426122620618e-16
y10_r6 -0.0
y11_r6 1.9058241313221758e-21
SH2_r6 1.1102426122620618e-16
SL2_r6 -0.0
y12_r6 -0.0
y13_r6 6.88214269644119e-22
y14_r6 -0.0
y15_r6 1.2176098616780567e-21
SH3_r6 1.0058516248644817e-21
SL3_r6 -0.0
y16_r6 -1.8648277366750676e-16
y17_r6 1.0
y18_r6 0.0
y19_r6 1.0
SH4_r6 1.0
SL4_r6 -0.0
y20_r6 3.8116482626443515e-21
y21_r6 2.0117032497289633e-21
y22_r6 -0.0
y23_r6 3.1763735522036263e-21
SH5_r6 3.8116482626443515e-21
SL5_r6 -0.0
y24_r6 0.0
y25_r6 0.0
y26_r6 -0.0
y27_r6 -0.0
SH6_r6 0.0
SL6_r6 0.0
y28_r6 -1.8561541192951836e-16
y29_r6 1.0
y30_r6 0.0
y31_r6 1.0
SH7_r6 1.0
SL7_r6 -2.5398554238661113e-17
y32_r6 -0.0
y33_r6 -0.0
y34_r6 -0.0
y35_r6 -0.0
SH8_r6 -0.0
SL8_r6 -0.0
y36_r6 -0.0
y37_r6 5.421010862427522e-20
y38_r6 5.929230630780102e-20
y39_r6 -0.0
SH9_r6 5.929230630780102e-20
SL9_r6 5.421010862427522e-20
y40_r6 -0.0
y41_r6 2.964615315390051e-20
y42_r6 2.964615315390051e-20
y43_r6 -0.0
SH10_r6 2.964615315390051e-20
SL10_r6 2.964615315390051e-20
y44_r6 -0.0
y45_r6 5.421010862427522e-20
y46_r6 5.421010862427522e-20
y47_r6 -0.0
SH11_r6 5.421010862427522e-20
SL11_r6 5.421010862427522e-20
y48_r6 1.5246593050577406e-20
y49_r6 0.0
y50_r6 1.5246593050577406e-20
y51_r6 -0.0
SH12_r6 1.5246593050577406e-20
SL12_r6 1.5246593050577406e-20
y52_r6 0.0
y53_r6 0.0
y54_r6 -0.0
y55_r6 -0.0
SH13_r6 0.0
SL13_r6 0.0
y56_r6 1.5670109524204556e-20
y57_r6 0.0
y58_r6 1.6517142471458857e-20
y59_r6 -0.0
SH14_r6 1.6517142471458857e-20
SL14_r6 1.6940658945086007e-20
y60_r6 0.0
y61_r6 -0.0
y62_r6 0.0
y63_r6 -0.0
SH15_r6 -0.0
SL15_r6 -0.0
y0_r7 -0.0
y1_r7 -0.0
y2_r7 -0.0
y3_r7 -0.0
SH0_r7 -0.0
SL0_r7 -0.0
y4_r7 -0.0
y5_r7 1.6940658945086007e-21
y6_r7 -1.8648277366750676e-16
y7_r7 0.0
SH1_r7 -1.8648277366750676e-16
SL1_r7 -1.8648277366750676e-16
y8_r7 -0.0
y9_r7 -0.0
y10_r7 -0.0
y11_r7 -0.0
SH2_r7 -0.0
SL2_r7 -0.0
y12_r7 0.0
y13_r7 1.6940658945086007e-21
y14_r7 1.6517142471458857e-20
y15_r7 -0.0
SH3_r7 1.6517142471458857e-20
SL3_r7 1.6517142471458857e-20
y16_r7 2.329340604949326e-21
y17_r7 3.0704944337968387e-21
y18_r7 -0.0
y19_r7 -0.0
SH4_r7 2.964615315390051e-21
SL4_r7 2.2234614865425384e-21
y20_r7 3.3881317890172014e-21
y21_r7 1.0
y22_r7 -0.0
y23_r7 0.0
SH5_r7 1.0
SL5_r7 -0.0
y24_r7 3.3881317890172014e-21
y25_r7 4.912791094074942e-20
y26_r7 -0.0
y27_r7 -0.0
SH6_r7 5.421010862427522e-20
SL6_r7 2.710505431213761e-20
y28_r7 0.0
y29_r7 0.0
y30_r7 -0.0
y31_r7 -0.0
SH7_r7 0.0
SL7_r7 -0.0
y32_r7 -0.0
y33_r7 -0.0
y34_r7 -0.0
y35_r7 -0.0
SH8_r7 -0.0
SL8_r7 -0.0
y36_r7 -0.0
y37_r7 -0.0
y38_r7 -0.0
y39_r7 -0.0
SH9_r7 -0.0
SL9_r7 -0.0
y40_r7 1.7787691892340307e-20
y41_r7 -1.8126505071242027e-18
y42_r7 -1.666960840196463e-18
y43_r7 1.6263032587282567e-19
SH10_r7 -1.666960840196463e-18
SL10_r7 -1.8126505071242027e-18
y44_r7 2.541098841762901e-20
y45_r7 1.8634724839594607e-20
y46_r7 5.590417451878382e-20
y47_r7 5.759824041329242e-20
SH11_r7 5.590417451878382e-20
SL11_r7 2.286988957586611e-20
y48_r7 -0.0
y49_r7 2.2234614865425384e-21
y50_r7 -0.0
y51_r7 -0.0
SH12_r7 1.9058241313221758e-21
SL12_r7 7.411538288475128e-22
y52_r7 -0.0
y53_r7 0.9999999999999999
y54_r7 -6.667843360785852e-18
y55_r7 0.0
SH13_r7 1.0
SL13_r7 -0.0
y56_r7 -0.0
y57_r7 -0.0
y58_r7 -0.0
y59_r7 -0.0
SH14_r7 -0.0
SL14_r7 -0.0
y60_r7 -0.0
y61_r7 -0.0
y62_r7 -0.0
y63_r7 -0.0
SH15_r7 -0.0
SL15_r7 -0.0
y0_r8 -0.0
y1_r8 -0.0
y2_r8 -0.0
y3_r8 -0.0
SH0_r8 0.0
SL0_r8 -0.0
y4_r8 -0.0
y5_r8 3.3881317890172014e-21
y6_r8 -0.0
y7_r8 -0.0
SH1_r8 3.3881317890172014e-21
SL1_r8 1.164670302474663e-21
y8_r8 0.0
y9_r8 2.117582368135751e-21
y10_r8 0.0
y11_r8 1.4399560103323106e-20
SH2_r8 1.7787691892340307e-20
SL2_r8 4.0234064994579266e-21
y12_r8 0.0
y13_r8 0.0
y14_r8 -0.0
y15_r8 -0.0
SH3_r8 -0.0
SL3_r8 -0.0
y16_r8 1.5881867761018131e-21
y17_r8 -1.2412505512359243e-16
y18_r8 -0.0
y19_r8 -0.0
SH4_r8 1.6940658945086007e-21
SL4_r8 -0.0
y20_r8 5.549421057231274e-17
y21_r8 1.0
y22_r8 0.0
y23_r8 1.0
SH5_r8 1.0
SL5_r8 7.236287171688213e-17
y24_r8 1.5272427555468662e-17
y25_r8 -1.538550645392711e-17
y26_r8 0.0
y27_r8 -1.6242703796548463e-17
SH6_r8 -1.8126505071242027e-18
SL6_r8 -8.478270406423512e-19
y28_r8 3.785601999516282e-17
y29_r8 1.0
y30_r8 -0.0
y31_r8 1.0
SH7_r8 1.0
SL7_r8 -0.0
y32_r8 -9.84455572616838e-17
y33_r8 -1.8648277366750676e-16
y34_r8 0.0
y35_r8 -4.119968255444917e-17
SH8_r8 -1.8648277366750676e-16
SL8_r8 -1.5265566588595902e-16
y36_r8 -0.0
y37_r8 0.0
y38_r8 0.0
y39_r8 -0.0
SH9_r8 0.0
SL9_r8 -0.0
y40_r8 -3.968179951296946e-17
y41_r8 -3.838075690598686e-17
y42_r8 -0.0
y43_r8 -4.119968255444917e-17
SH10_r8 -3.838075690598686e-17
SL10_r8 -1.6737371037744975e-18
y44_r8 -2.5261910618912253e-17
y45_r8 -2.5261910618912253e-17
y46_r8 -0.0
y47_r8 -3.198396408832238e-17
SH11_r8 -2.5261910618912253e-17
SL11_r8 -0.0
y48_r8 0.0
y49_r8 0.0
y50_r8 0.0
y51_r8 0.0
SH12_r8 0.0
SL12_r8 -0.0
y52_r8 -0.0
y53_r8 0.0
y54_r8 0.0
y55_r8 -0.0
SH13_r8 0.0
SL13_r8 -0.0
y56_r8 5.421010862427522e-20
y57_r8 1.1180834903756764e-19
y58_r8 5.421010862427522e-20
y59_r8 0.0
SH14_r8 1.6263032587282567e-19
SL14_r8 1.1180834903756764e-19
y60_r8 0.0
y61_r8 0.0
y62_r8 -0.0
y63_r8 -0.0
SH15_r8 -0.0
SL15_r8 -0.0
y0_r9 -0.0
y1_r9 0.0
y2_r9 -0.0
y3_r9 -0.0
SH0_r9 0.0
SL0_r9 -0.0
y4_r9 -0.0
y5_r9 1.763640386702681e-17
y6_r9 -0.0
y7_r9 4.409441765169074e-17
SH1_r9 5.549421057231274e-17
SL1_r9 -0.0
y8_r9 -8.998878031629687e-18
y9_r9 -3.7947076036992655e-17
y10_r9 -2.461138931542095e-17
y11_r9 -6.461844948013606e-17
SH2_r9 -9.84455572616838e-17
SL2_r9 -0.0
y12_r9 -0.0
y13_r9 4.573977915173222e-20
y14_r9 0.0
y15_r9 5.421010862427522e-20
SH3_r9 5.421010862427522e-20
SL3_r9 -0.0
y16_r9 -0.0
y17_r9 2.117582368135751e-21
y18_r9 3.3881317890172014e-21
y19_r9 1.9058241313221758e-21
SH4_r9 2.117582368135751e-21
SL4_r9 -0.0
y20_r9 1.0
y21_r9 1.0
y22_r9 -0.0
y23_r9 -0.0
SH5_r9 1.0
SL5_r9 -0.0
y24_r9 -3.2751579226442118e-15
y25_r9 -3.3029134982598407e-15
y26_r9 -0.0
y27_r9 -3.3029134982598407e-15
SH6_r9 -3.3029134982598407e-15
SL6_r9 -2.96637714392034e-16
y28_r9 -0.0
y29_r9 1.0842021724855044e-19
y30_r9 -0.0
y31_r9 1.1180834903756764e-19
SH7_r9 1.1180834903756764e-19
SL7_r9 -0.0
y32_r9 -0.0
y33_r9 0.0
y34_r9 -0.0
y35_r9 -0.0
SH8_r9 -0.0
SL8_r9 -0.0
y36_r9 -0.0
y37_r9 0.0
y38_r9 -0.0
y39_r9 -0.0
SH9_r9 0.0
SL9_r9 -0.0
y40_r9 0.0
y41_r9 -0.0
y42_r9 -0.0
y43_r9 0.0
SH10_r9 0.0
SL10_r9 -0.0
y44_r9 3.8963515573697816e-20
y45_r9 4.0657581468206416e-20
y46_r9 -0.0
y47_r9 -0.0
SH11_r9 5.421010862427522e-20
SL11_r9 5.421010862427522e-20
y48_r9 -0.0
y49_r9 1.4399560103323106e-20
y50_r9 -0.0
y51_r9 1.4399560103323106e-20
SH12_r9 1.4399560103323106e-20
SL12_r9 0.0
y52_r9 1.0000000000000002
y53_r9 1.0
y54_r9 -0.0
y55_r9 -0.0
SH13_r9 1.0
SL13_r9 -0.0
y56_r9 -2.2768245622195593e-17
y57_r9 -1.3769367590565906e-17
y58_r9 -9.161508357502512e-18
y59_r9 -0.0
SH14_r9 -4.119968255444917e-17
SL14_r9 -0.0
y60_r9 -0.0
y61_r9 0.0
y62_r9 0.0
y63_r9 -0.0
SH15_r9 -0.0
SL15_r9 -0.0
